\ENCODING=ISO-8859-1
\Problem name: ilog.cplex

Maximize
 obj: 929 x(0)#0 + 619 x(1)#1 + 726 x(2)#2 + 504 x(3)#3 + 664 x(4)#4
      + 1102 x(5)#5 + 767 x(6)#6 + 1123 x(7)#7 + 800 x(8)#8 + 1086 x(9)#9
      + 656 x(10)#10 + 914 x(11)#11 + 930 x(12)#12 + 764 x(13)#13
      + 1006 x(14)#14 + 1002 x(15)#15 + 658 x(16)#16 + 824 x(17)#17
      + 647 x(18)#18 + 433 x(19)#19 + 934 x(20)#20 + 972 x(21)#21
      + 579 x(22)#22 + 524 x(23)#23 + 810 x(24)#24 + 813 x(25)#25
      + 1111 x(26)#26 + 708 x(27)#27 + 560 x(28)#28 + 538 x(29)#29
      + 950 x(30)#30 + 728 x(31)#31 + 370 x(32)#32 + 717 x(33)#33
      + 839 x(34)#34 + 936 x(35)#35 + 518 x(36)#36 + 804 x(37)#37
      + 747 x(38)#38 + 711 x(39)#39 + 965 x(40)#40 + 672 x(41)#41
      + 394 x(42)#42 + 639 x(43)#43 + 824 x(44)#44 + 688 x(45)#45
      + 723 x(46)#46 + 877 x(47)#47 + 603 x(48)#48 + 982 x(49)#49
      + 855 x(50)#50 + 715 x(51)#51 + 806 x(52)#52 + 636 x(53)#53
      + 746 x(54)#54 + 939 x(55)#55 + 984 x(56)#56 + 1111 x(57)#57
      + 746 x(58)#58 + 598 x(59)#59 + 659 x(60)#60 + 538 x(61)#61
      + 721 x(62)#62 + 678 x(63)#63 + 975 x(64)#64 + 731 x(65)#65
      + 688 x(66)#66 + 1002 x(67)#67 + 631 x(68)#68 + 483 x(69)#69
      + 710 x(70)#70 + 780 x(71)#71 + 939 x(72)#72 + 635 x(73)#73
      + 699 x(74)#74 + 673 x(75)#75 + 1025 x(76)#76 + 715 x(77)#77
      + 490 x(78)#78 + 871 x(79)#79 + 500 x(80)#80 + 674 x(81)#81
      + 861 x(82)#82 + 546 x(83)#83 + 700 x(84)#84 + 1061 x(85)#85
      + 699 x(86)#86 + 857 x(87)#87 + 915 x(88)#88 + 913 x(89)#89
      + 633 x(90)#90 + 599 x(91)#91 + 921 x(92)#92 + 640 x(93)#93
      + 532 x(94)#94 + 805 x(95)#95 + 861 x(96)#96 + 907 x(97)#97
      + 776 x(98)#98 + 620 x(99)#99
Subject To
 c1:  949 x(0)#0 + 384 x(1)#1 + 175 x(2)#2 + 304 x(3)#3 + 105 x(4)#4
      + 834 x(5)#5 + 360 x(6)#6 + 484 x(7)#7 + 226 x(8)#8 + 598 x(9)#9
      + 345 x(10)#10 + 996 x(11)#11 + 276 x(12)#12 + 320 x(13)#13
      + 977 x(14)#14 + 479 x(15)#15 + 429 x(16)#16 + 27 x(17)#17 + 459 x(18)#18
      + 40 x(19)#19 + 247 x(20)#20 + 409 x(21)#21 + 328 x(22)#22 + 27 x(23)#23
      + 582 x(24)#24 + 372 x(25)#25 + 380 x(26)#26 + 214 x(27)#27
      + 513 x(28)#28 + 55 x(29)#29 + 842 x(30)#30 + 704 x(31)#31 + 75 x(32)#32
      + 459 x(33)#33 + 329 x(34)#34 + 810 x(35)#35 + 151 x(36)#36 + 51 x(37)#37
      + 332 x(38)#38 + 527 x(39)#39 + 549 x(40)#40 + 679 x(41)#41
      + 426 x(42)#42 + 853 x(43)#43 + 838 x(44)#44 + 41 x(45)#45 + 602 x(46)#46
      + 585 x(47)#47 + 57 x(48)#48 + 418 x(49)#49 + 380 x(50)#50 + 524 x(51)#51
      + 939 x(52)#52 + 209 x(53)#53 + 127 x(54)#54 + 415 x(55)#55
      + 761 x(56)#56 + 928 x(57)#57 + 143 x(58)#58 + 488 x(59)#59
      + 869 x(60)#60 + 870 x(61)#61 + 778 x(62)#62 + 746 x(63)#63
      + 738 x(64)#64 + 572 x(65)#65 + 943 x(66)#66 + 590 x(67)#67
      + 376 x(68)#68 + 129 x(69)#69 + 694 x(70)#70 + 755 x(71)#71
      + 877 x(72)#72 + 571 x(73)#73 + 141 x(74)#74 + 990 x(75)#75
      + 322 x(76)#76 + 580 x(77)#77 + 655 x(78)#78 + 778 x(79)#79
      + 801 x(80)#80 + 289 x(81)#81 + 908 x(82)#82 + 974 x(83)#83
      + 775 x(84)#84 + 849 x(85)#85 + 610 x(86)#86 + 217 x(87)#87
      + 869 x(88)#88 + 250 x(89)#89 + 431 x(90)#90 + 126 x(91)#91
      + 526 x(92)#92 + 795 x(93)#93 + 171 x(94)#94 + 983 x(95)#95
      + 769 x(96)#96 + 304 x(97)#97 + 784 x(98)#98 + 715 x(99)#99 <= 25628
 c2:  364 x(0)#0 + 321 x(1)#1 + 790 x(2)#2 + 984 x(3)#3 + 772 x(4)#4
      + 922 x(5)#5 + 553 x(6)#6 + 839 x(7)#7 + 22 x(8)#8 + 928 x(9)#9
      + 833 x(10)#10 + 441 x(11)#11 + 757 x(12)#12 + 929 x(13)#13
      + 213 x(14)#14 + 989 x(15)#15 + 570 x(16)#16 + 632 x(17)#17
      + 327 x(18)#18 + 119 x(19)#19 + 44 x(20)#20 + 843 x(21)#21 + 789 x(22)#22
      + 7 x(23)#23 + 237 x(24)#24 + 21 x(25)#25 + 309 x(26)#26 + 751 x(27)#27
      + 760 x(28)#28 + 185 x(29)#29 + 189 x(30)#30 + 850 x(31)#31 + 3 x(32)#32
      + 517 x(33)#33 + 382 x(34)#34 + 773 x(35)#35 + 481 x(36)#36
      + 163 x(37)#37 + 990 x(38)#38 + 959 x(39)#39 + 844 x(40)#40
      + 246 x(41)#41 + 176 x(42)#42 + 632 x(43)#43 + 941 x(44)#44
      + 713 x(45)#45 + 957 x(46)#46 + 298 x(47)#47 + 283 x(48)#48 + 31 x(49)#49
      + 942 x(50)#50 + 554 x(51)#51 + 645 x(52)#52 + 66 x(53)#53 + 329 x(54)#54
      + 69 x(55)#55 + 520 x(56)#56 + 444 x(57)#57 + 287 x(58)#58 + 130 x(59)#59
      + 687 x(60)#60 + 135 x(61)#61 + 686 x(62)#62 + 20 x(63)#63 + 22 x(64)#64
      + 77 x(65)#65 + 340 x(66)#66 + 196 x(67)#67 + 476 x(68)#68 + 510 x(69)#69
      + 582 x(70)#70 + 736 x(71)#71 + 227 x(72)#72 + 861 x(73)#73
      + 907 x(74)#74 + 453 x(75)#75 + 825 x(76)#76 + 266 x(77)#77
      + 836 x(78)#78 + 990 x(79)#79 + 413 x(80)#80 + 453 x(81)#81
      + 305 x(82)#82 + 698 x(83)#83 + 488 x(84)#84 + 527 x(85)#85
      + 890 x(86)#86 + 911 x(87)#87 + 737 x(88)#88 + 825 x(89)#89
      + 385 x(90)#90 + 176 x(91)#91 + 751 x(92)#92 + 17 x(93)#93 + 371 x(94)#94
      + 375 x(95)#95 + 219 x(96)#96 + 456 x(97)#97 + 952 x(98)#98
      + 995 x(99)#99 <= 25721
 c3:  149 x(0)#0 + 732 x(1)#1 + 647 x(2)#2 + 144 x(3)#3 + 452 x(4)#4
      + 38 x(5)#5 + 596 x(6)#6 + 682 x(7)#7 + 338 x(8)#8 + 763 x(9)#9
      + 812 x(10)#10 + 207 x(11)#11 + 293 x(12)#12 + 475 x(13)#13
      + 374 x(14)#14 + 399 x(15)#15 + 310 x(16)#16 + 387 x(17)#17
      + 345 x(18)#18 + 420 x(19)#19 + 855 x(20)#20 + 859 x(21)#21
      + 997 x(22)#22 + 689 x(23)#23 + 838 x(24)#24 + 551 x(25)#25
      + 299 x(26)#26 + 588 x(27)#27 + 932 x(28)#28 + 46 x(29)#29 + 852 x(30)#30
      + 428 x(31)#31 + 349 x(32)#32 + 612 x(33)#33 + 538 x(34)#34 + 57 x(35)#35
      + 869 x(36)#36 + 904 x(37)#37 + 688 x(38)#38 + 69 x(39)#39 + 327 x(40)#40
      + 700 x(41)#41 + 571 x(42)#42 + 758 x(43)#43 + 564 x(44)#44 + 72 x(45)#45
      + 221 x(46)#46 + 17 x(47)#47 + 301 x(48)#48 + 822 x(49)#49 + 526 x(50)#50
      + 382 x(51)#51 + 610 x(52)#52 + 947 x(53)#53 + 393 x(54)#54
      + 909 x(55)#55 + 294 x(56)#56 + 474 x(57)#57 + 559 x(58)#58
      + 532 x(59)#59 + 104 x(60)#60 + 408 x(61)#61 + 318 x(62)#62
      + 189 x(63)#63 + 842 x(64)#64 + 23 x(65)#65 + 407 x(66)#66 + 401 x(67)#67
      + 136 x(68)#68 + 59 x(69)#69 + 282 x(70)#70 + 648 x(71)#71 + 864 x(72)#72
      + 286 x(73)#73 + 602 x(74)#74 + 739 x(75)#75 + 939 x(76)#76
      + 389 x(77)#77 + 568 x(78)#78 + 424 x(79)#79 + 343 x(80)#80
      + 327 x(81)#81 + 832 x(82)#82 + 403 x(83)#83 + 810 x(84)#84
      + 584 x(85)#85 + 494 x(86)#86 + 820 x(87)#87 + 382 x(88)#88
      + 305 x(89)#89 + 502 x(90)#90 + 365 x(91)#91 + 983 x(92)#92 + 37 x(93)#93
      + 510 x(94)#94 + 23 x(95)#95 + 390 x(96)#96 + 316 x(97)#97 + 597 x(98)#98
      + 466 x(99)#99 <= 24340
 c4:  747 x(0)#0 + 968 x(1)#1 + 120 x(2)#2 + 121 x(3)#3 + 941 x(4)#4
      + 353 x(5)#5 + 584 x(6)#6 + 911 x(7)#7 + 433 x(8)#8 + 968 x(9)#9
      + 781 x(10)#10 + 395 x(11)#11 + 539 x(12)#12 + 182 x(13)#13
      + 624 x(14)#14 + 988 x(15)#15 + 639 x(16)#16 + 970 x(17)#17
      + 331 x(18)#18 + 150 x(19)#19 + 590 x(20)#20 + 349 x(21)#21
      + 210 x(22)#22 + 608 x(23)#23 + 122 x(24)#24 + 62 x(25)#25 + 470 x(26)#26
      + 579 x(27)#27 + 672 x(28)#28 + 164 x(29)#29 + 253 x(30)#30
      + 666 x(31)#31 + 272 x(32)#32 + 30 x(33)#33 + 59 x(34)#34 + 705 x(35)#35
      + 238 x(36)#36 + 212 x(37)#37 + 534 x(38)#38 + 320 x(39)#39
      + 438 x(40)#40 + 60 x(41)#41 + 341 x(42)#42 + 988 x(43)#43 + 913 x(44)#44
      + 684 x(45)#45 + 294 x(46)#46 + 930 x(47)#47 + 50 x(48)#48 + 706 x(49)#49
      + 585 x(50)#50 + 66 x(51)#51 + 95 x(52)#52 + 229 x(53)#53 + 561 x(54)#54
      + 909 x(55)#55 + 448 x(56)#56 + 778 x(57)#57 + 652 x(58)#58 + 15 x(59)#59
      + 288 x(60)#60 + 21 x(61)#61 + 783 x(62)#62 + 10 x(63)#63 + 47 x(64)#64
      + 814 x(65)#65 + 834 x(66)#66 + 56 x(67)#67 + 196 x(68)#68 + 495 x(69)#69
      + 660 x(70)#70 + 679 x(71)#71 + 114 x(72)#72 + 775 x(73)#73
      + 375 x(74)#74 + 466 x(75)#75 + 177 x(76)#76 + 448 x(77)#77
      + 497 x(78)#78 + 915 x(79)#79 + 66 x(80)#80 + 328 x(81)#81 + 584 x(82)#82
      + 250 x(83)#83 + 991 x(84)#84 + 818 x(85)#85 + 395 x(86)#86
      + 740 x(87)#87 + 888 x(88)#88 + 417 x(89)#89 + 89 x(90)#90 + 700 x(91)#91
      + 599 x(92)#92 + 898 x(93)#93 + 786 x(94)#94 + 330 x(95)#95
      + 550 x(96)#96 + 55 x(97)#97 + 831 x(98)#98 + 110 x(99)#99 <= 23839
 c5:  869 x(0)#0 + 619 x(1)#1 + 738 x(2)#2 + 755 x(3)#3 + 693 x(4)#4
      + 161 x(5)#5 + 124 x(6)#6 + 300 x(7)#7 + 268 x(8)#8 + 875 x(9)#9
      + 851 x(10)#10 + 224 x(11)#11 + 550 x(12)#12 + 771 x(13)#13
      + 1000 x(14)#14 + 357 x(15)#15 + 368 x(16)#16 + 75 x(17)#17
      + 354 x(18)#18 + 701 x(19)#19 + 980 x(20)#20 + 612 x(21)#21
      + 228 x(22)#22 + 746 x(23)#23 + 347 x(24)#24 + 817 x(25)#25
      + 967 x(26)#26 + 586 x(27)#27 + 798 x(28)#28 + 890 x(29)#29
      + 775 x(30)#30 + 707 x(31)#31 + 539 x(32)#32 + 783 x(33)#33
      + 735 x(34)#34 + 678 x(35)#35 + 16 x(36)#36 + 203 x(37)#37 + 476 x(38)#38
      + 244 x(39)#39 + 273 x(40)#40 + 612 x(41)#41 + 306 x(42)#42
      + 497 x(43)#43 + 441 x(44)#44 + 371 x(45)#45 + 152 x(46)#46
      + 714 x(47)#47 + 465 x(48)#48 + 440 x(49)#49 + 572 x(50)#50
      + 215 x(51)#51 + 100 x(52)#52 + 627 x(53)#53 + 398 x(54)#54
      + 473 x(55)#55 + 502 x(56)#56 + 354 x(57)#57 + 222 x(58)#58
      + 331 x(59)#59 + 880 x(60)#60 + 854 x(61)#61 + 117 x(62)#62
      + 967 x(63)#63 + 709 x(64)#64 + 972 x(65)#65 + 420 x(66)#66
      + 703 x(67)#67 + 690 x(68)#68 + 516 x(69)#69 + 199 x(70)#70
      + 952 x(71)#71 + 271 x(72)#72 + 395 x(73)#73 + 6 x(74)#74 + 430 x(75)#75
      + 976 x(76)#76 + 633 x(77)#77 + 9 x(78)#78 + 467 x(79)#79 + 978 x(80)#80
      + 442 x(81)#81 + 913 x(82)#82 + 300 x(83)#83 + 390 x(84)#84
      + 965 x(85)#85 + 575 x(86)#86 + 713 x(87)#87 + 719 x(88)#88
      + 638 x(89)#89 + 710 x(90)#90 + 474 x(91)#91 + 187 x(92)#92
      + 955 x(93)#93 + 575 x(94)#94 + 986 x(95)#95 + 35 x(96)#96 + 721 x(97)#97
      + 824 x(98)#98 + 142 x(99)#99 <= 27127
 c6:  699 x(0)#0 + 884 x(1)#1 + 708 x(2)#2 + 130 x(3)#3 + 264 x(4)#4
      + 745 x(5)#5 + 128 x(6)#6 + 383 x(7)#7 + 468 x(8)#8 + 996 x(9)#9
      + 419 x(10)#10 + 894 x(11)#11 + 828 x(12)#12 + 624 x(13)#13 + 43 x(14)#14
      + 635 x(15)#15 + 603 x(16)#16 + 226 x(17)#17 + 79 x(18)#18 + 970 x(19)#19
      + 342 x(20)#20 + 44 x(21)#21 + 624 x(22)#22 + 522 x(23)#23 + 719 x(24)#24
      + 298 x(25)#25 + 590 x(26)#26 + 836 x(27)#27 + 398 x(28)#28
      + 582 x(29)#29 + 708 x(30)#30 + 970 x(31)#31 + 563 x(32)#32 + 28 x(33)#33
      + 764 x(34)#34 + 920 x(35)#35 + 708 x(36)#36 + 429 x(37)#37
      + 112 x(38)#38 + 540 x(39)#39 + 838 x(40)#40 + 301 x(41)#41
      + 341 x(42)#42 + 556 x(43)#43 + 85 x(44)#44 + 315 x(45)#45 + 120 x(46)#46
      + 188 x(47)#47 + 564 x(48)#48 + 947 x(49)#49 + 413 x(50)#50
      + 796 x(51)#51 + 172 x(52)#52 + 37 x(53)#53 + 652 x(54)#54 + 338 x(55)#55
      + 12 x(56)#56 + 922 x(57)#57 + 178 x(58)#58 + 261 x(59)#59 + 364 x(60)#60
      + 428 x(61)#61 + 864 x(62)#62 + 685 x(63)#63 + 642 x(64)#64
      + 300 x(65)#65 + 310 x(66)#66 + 675 x(67)#67 + 745 x(68)#68 + 72 x(69)#69
      + 662 x(70)#70 + 445 x(71)#71 + 5 x(72)#72 + 555 x(73)#73 + 384 x(74)#74
      + 990 x(75)#75 + 279 x(76)#76 + 162 x(77)#77 + 33 x(78)#78 + 54 x(79)#79
      + 400 x(80)#80 + 599 x(81)#81 + 658 x(82)#82 + 878 x(83)#83
      + 463 x(84)#84 + 328 x(85)#85 + 977 x(86)#86 + 146 x(87)#87
      + 675 x(88)#88 + 572 x(89)#89 + 770 x(90)#90 + 53 x(91)#91 + 423 x(92)#92
      + 915 x(93)#93 + 580 x(94)#94 + 214 x(95)#95 + 65 x(96)#96 + 755 x(97)#97
      + 867 x(98)#98 + 28 x(99)#99 <= 24240
 c7:  209 x(0)#0 + 10 x(1)#1 + 441 x(2)#2 + 697 x(3)#3 + 265 x(4)#4
      + 934 x(5)#5 + 36 x(6)#6 + 938 x(7)#7 + 929 x(8)#8 + 294 x(9)#9
      + 237 x(10)#10 + 923 x(11)#11 + 543 x(12)#12 + 518 x(13)#13
      + 310 x(14)#14 + 722 x(15)#15 + 393 x(16)#16 + 181 x(17)#17
      + 816 x(18)#18 + 226 x(19)#19 + 923 x(20)#20 + 855 x(21)#21
      + 447 x(22)#22 + 443 x(23)#23 + 54 x(24)#24 + 714 x(25)#25 + 639 x(26)#26
      + 308 x(27)#27 + 103 x(28)#28 + 81 x(29)#29 + 371 x(30)#30 + 513 x(31)#31
      + 387 x(32)#32 + 433 x(33)#33 + 682 x(34)#34 + 562 x(35)#35
      + 986 x(36)#36 + 247 x(37)#37 + 432 x(38)#38 + 121 x(39)#39
      + 707 x(40)#40 + 462 x(41)#41 + 613 x(42)#42 + 841 x(43)#43 + 34 x(44)#44
      + 514 x(45)#45 + 744 x(46)#46 + 503 x(47)#47 + 361 x(48)#48
      + 181 x(49)#49 + 881 x(50)#50 + 753 x(51)#51 + 507 x(52)#52
      + 316 x(53)#53 + 97 x(54)#54 + 409 x(55)#55 + 658 x(56)#56 + 281 x(57)#57
      + 626 x(58)#58 + 776 x(59)#59 + 563 x(60)#60 + 135 x(61)#61
      + 406 x(62)#62 + 483 x(63)#63 + 255 x(64)#64 + 15 x(65)#65 + 345 x(66)#66
      + 895 x(67)#67 + 305 x(68)#68 + 5 x(69)#69 + 53 x(70)#70 + 3 x(71)#71
      + 205 x(72)#72 + 130 x(73)#73 + 377 x(74)#74 + 217 x(75)#75
      + 215 x(76)#76 + 256 x(77)#77 + 217 x(78)#78 + 140 x(79)#79
      + 687 x(80)#80 + 927 x(81)#81 + 380 x(82)#82 + 265 x(83)#83
      + 486 x(84)#84 + 898 x(85)#85 + 328 x(86)#86 + 366 x(87)#87
      + 321 x(88)#88 + 161 x(89)#89 + 85 x(90)#90 + 91 x(91)#91 + 560 x(92)#92
      + 708 x(93)#93 + 667 x(94)#94 + 426 x(95)#95 + 13 x(96)#96 + 284 x(97)#97
      + 653 x(98)#98 + 607 x(99)#99 <= 21660
 c8:  732 x(0)#0 + 121 x(1)#1 + 795 x(2)#2 + 24 x(3)#3 + 8 x(4)#4 + 851 x(5)#5
      + 473 x(6)#6 + 284 x(7)#7 + 504 x(8)#8 + 122 x(9)#9 + 633 x(10)#10
      + 763 x(11)#11 + 379 x(12)#12 + 268 x(13)#13 + 784 x(14)#14
      + 121 x(15)#15 + 289 x(16)#16 + 482 x(17)#17 + 91 x(18)#18 + 777 x(19)#19
      + 588 x(20)#20 + 145 x(21)#21 + 591 x(22)#22 + 547 x(23)#23
      + 811 x(24)#24 + 225 x(25)#25 + 963 x(26)#26 + 878 x(27)#27 + 13 x(28)#28
      + 247 x(29)#29 + 327 x(30)#30 + 740 x(31)#31 + 317 x(32)#32
      + 907 x(33)#33 + 201 x(34)#34 + 832 x(35)#35 + 154 x(36)#36
      + 424 x(37)#37 + 340 x(38)#38 + 400 x(39)#39 + 388 x(40)#40
      + 119 x(41)#41 + 239 x(42)#42 + 10 x(43)#43 + 438 x(44)#44 + 675 x(45)#45
      + 598 x(46)#46 + 272 x(47)#47 + 885 x(48)#48 + 579 x(49)#49
      + 218 x(50)#50 + 243 x(51)#51 + 692 x(52)#52 + 577 x(53)#53
      + 985 x(54)#54 + 801 x(55)#55 + 573 x(56)#56 + 813 x(57)#57
      + 286 x(58)#58 + 815 x(59)#59 + 64 x(60)#60 + 232 x(61)#61 + 119 x(62)#62
      + 228 x(63)#63 + 715 x(64)#64 + 609 x(65)#65 + 393 x(66)#66 + 51 x(67)#67
      + 69 x(68)#68 + 970 x(69)#69 + 683 x(70)#70 + 518 x(71)#71 + 659 x(72)#72
      + 192 x(73)#73 + 468 x(74)#74 + 731 x(75)#75 + 246 x(76)#76
      + 565 x(77)#77 + 285 x(78)#78 + 800 x(79)#79 + 547 x(80)#80
      + 173 x(81)#81 + 655 x(82)#82 + 413 x(83)#83 + 88 x(84)#84 + 586 x(85)#85
      + 835 x(86)#86 + 333 x(87)#87 + 175 x(88)#88 + 696 x(89)#89
      + 204 x(90)#90 + 189 x(91)#91 + 964 x(92)#92 + 352 x(93)#93
      + 508 x(94)#94 + 529 x(95)#95 + 351 x(96)#96 + 645 x(97)#97
      + 672 x(98)#98 + 49 x(99)#99 <= 22959
 c9:  936 x(0)#0 + 161 x(1)#1 + 237 x(2)#2 + 182 x(3)#3 + 949 x(4)#4
      + 684 x(5)#5 + 328 x(6)#6 + 980 x(7)#7 + 949 x(8)#8 + 745 x(9)#9
      + 111 x(10)#10 + 375 x(11)#11 + 386 x(12)#12 + 345 x(13)#13
      + 296 x(14)#14 + 141 x(15)#15 + 616 x(16)#16 + 84 x(17)#17 + 741 x(18)#18
      + 520 x(19)#19 + 552 x(20)#20 + 107 x(21)#21 + 468 x(22)#22
      + 927 x(23)#23 + 899 x(24)#24 + 503 x(25)#25 + 775 x(26)#26
      + 993 x(27)#27 + 487 x(28)#28 + 63 x(29)#29 + 457 x(30)#30 + 169 x(31)#31
      + 91 x(32)#32 + 147 x(33)#33 + 468 x(34)#34 + 64 x(35)#35 + 194 x(36)#36
      + 876 x(37)#37 + 242 x(38)#38 + 326 x(39)#39 + 306 x(40)#40
      + 968 x(41)#41 + 834 x(42)#42 + 30 x(43)#43 + 354 x(44)#44 + 110 x(45)#45
      + 846 x(46)#46 + 724 x(47)#47 + 877 x(48)#48 + 302 x(49)#49
      + 566 x(50)#50 + 328 x(51)#51 + 176 x(52)#52 + 606 x(53)#53
      + 942 x(54)#54 + 239 x(55)#55 + 508 x(56)#56 + 363 x(57)#57
      + 392 x(58)#58 + 101 x(59)#59 + 996 x(60)#60 + 614 x(61)#61 + 42 x(62)#62
      + 733 x(63)#63 + 327 x(64)#64 + 170 x(65)#65 + 102 x(66)#66
      + 892 x(67)#67 + 939 x(68)#68 + 679 x(69)#69 + 51 x(70)#70 + 777 x(71)#71
      + 373 x(72)#72 + 73 x(73)#73 + 478 x(74)#74 + 389 x(75)#75 + 939 x(76)#76
      + 189 x(77)#77 + 424 x(78)#78 + 739 x(79)#79 + 389 x(80)#80
      + 952 x(81)#81 + 671 x(82)#82 + 14 x(83)#83 + 591 x(84)#84 + 223 x(85)#85
      + 604 x(86)#86 + 468 x(87)#87 + 656 x(88)#88 + 167 x(89)#89
      + 167 x(90)#90 + 622 x(91)#91 + 287 x(92)#92 + 914 x(93)#93
      + 604 x(94)#94 + 500 x(95)#95 + 890 x(96)#96 + 22 x(97)#97 + 363 x(98)#98
      + 290 x(99)#99 <= 23733
 c10: 727 x(0)#0 + 710 x(1)#1 + 403 x(2)#2 + 853 x(3)#3 + 55 x(4)#4
      + 684 x(5)#5 + 797 x(6)#6 + 669 x(7)#7 + 701 x(8)#8 + 165 x(9)#9
      + 800 x(10)#10 + 200 x(11)#11 + 362 x(12)#12 + 603 x(13)#13
      + 679 x(14)#14 + 801 x(15)#15 + 181 x(16)#16 + 625 x(17)#17 + 76 x(18)#18
      + 237 x(19)#19 + 893 x(20)#20 + 928 x(21)#21 + 99 x(22)#22 + 218 x(23)#23
      + 71 x(24)#24 + 52 x(25)#25 + 735 x(26)#26 + 509 x(27)#27 + 718 x(28)#28
      + 974 x(29)#29 + 45 x(30)#30 + 474 x(31)#31 + 14 x(32)#32 + 680 x(33)#33
      + 130 x(34)#34 + 282 x(35)#35 + 14 x(36)#36 + 978 x(37)#37 + 341 x(38)#38
      + 444 x(39)#39 + 809 x(40)#40 + 559 x(41)#41 + 84 x(42)#42 + 868 x(43)#43
      + 691 x(44)#44 + 70 x(45)#45 + 943 x(46)#46 + 899 x(47)#47 + 867 x(48)#48
      + 409 x(49)#49 + 399 x(50)#50 + 916 x(51)#51 + 461 x(52)#52
      + 216 x(53)#53 + 221 x(54)#54 + 146 x(55)#55 + 668 x(56)#56
      + 980 x(57)#57 + 370 x(58)#58 + 10 x(59)#59 + 202 x(60)#60 + 154 x(61)#61
      + 362 x(62)#62 + 252 x(63)#63 + 720 x(64)#64 + 309 x(65)#65
      + 175 x(66)#66 + 768 x(67)#67 + 836 x(68)#68 + 378 x(69)#69
      + 622 x(70)#70 + 651 x(71)#71 + 965 x(72)#72 + 290 x(73)#73
      + 572 x(74)#74 + 479 x(75)#75 + 496 x(76)#76 + 722 x(77)#77
      + 615 x(78)#78 + 179 x(79)#79 + 176 x(80)#80 + 810 x(81)#81
      + 188 x(82)#82 + 543 x(83)#83 + 519 x(84)#84 + 847 x(85)#85
      + 596 x(86)#86 + 254 x(87)#87 + 935 x(88)#88 + 352 x(89)#89
      + 326 x(90)#90 + 457 x(91)#91 + 654 x(92)#92 + 171 x(93)#93 + 98 x(94)#94
      + 792 x(95)#95 + 445 x(96)#96 + 646 x(97)#97 + 131 x(98)#98
      + 223 x(99)#99 <= 24212
Bounds
 0 <= x(0)#0 <= 1
 0 <= x(1)#1 <= 1
 0 <= x(2)#2 <= 1
 0 <= x(3)#3 <= 1
 0 <= x(4)#4 <= 1
 0 <= x(5)#5 <= 1
 0 <= x(6)#6 <= 1
 0 <= x(7)#7 <= 1
 0 <= x(8)#8 <= 1
 0 <= x(9)#9 <= 1
 0 <= x(10)#10 <= 1
 0 <= x(11)#11 <= 1
 0 <= x(12)#12 <= 1
 0 <= x(13)#13 <= 1
 0 <= x(14)#14 <= 1
 0 <= x(15)#15 <= 1
 0 <= x(16)#16 <= 1
 0 <= x(17)#17 <= 1
 0 <= x(18)#18 <= 1
 0 <= x(19)#19 <= 1
 0 <= x(20)#20 <= 1
 0 <= x(21)#21 <= 1
 0 <= x(22)#22 <= 1
 0 <= x(23)#23 <= 1
 0 <= x(24)#24 <= 1
 0 <= x(25)#25 <= 1
 0 <= x(26)#26 <= 1
 0 <= x(27)#27 <= 1
 0 <= x(28)#28 <= 1
 0 <= x(29)#29 <= 1
 0 <= x(30)#30 <= 1
 0 <= x(31)#31 <= 1
 0 <= x(32)#32 <= 1
 0 <= x(33)#33 <= 1
 0 <= x(34)#34 <= 1
 0 <= x(35)#35 <= 1
 0 <= x(36)#36 <= 1
 0 <= x(37)#37 <= 1
 0 <= x(38)#38 <= 1
 0 <= x(39)#39 <= 1
 0 <= x(40)#40 <= 1
 0 <= x(41)#41 <= 1
 0 <= x(42)#42 <= 1
 0 <= x(43)#43 <= 1
 0 <= x(44)#44 <= 1
 0 <= x(45)#45 <= 1
 0 <= x(46)#46 <= 1
 0 <= x(47)#47 <= 1
 0 <= x(48)#48 <= 1
 0 <= x(49)#49 <= 1
 0 <= x(50)#50 <= 1
 0 <= x(51)#51 <= 1
 0 <= x(52)#52 <= 1
 0 <= x(53)#53 <= 1
 0 <= x(54)#54 <= 1
 0 <= x(55)#55 <= 1
 0 <= x(56)#56 <= 1
 0 <= x(57)#57 <= 1
 0 <= x(58)#58 <= 1
 0 <= x(59)#59 <= 1
 0 <= x(60)#60 <= 1
 0 <= x(61)#61 <= 1
 0 <= x(62)#62 <= 1
 0 <= x(63)#63 <= 1
 0 <= x(64)#64 <= 1
 0 <= x(65)#65 <= 1
 0 <= x(66)#66 <= 1
 0 <= x(67)#67 <= 1
 0 <= x(68)#68 <= 1
 0 <= x(69)#69 <= 1
 0 <= x(70)#70 <= 1
 0 <= x(71)#71 <= 1
 0 <= x(72)#72 <= 1
 0 <= x(73)#73 <= 1
 0 <= x(74)#74 <= 1
 0 <= x(75)#75 <= 1
 0 <= x(76)#76 <= 1
 0 <= x(77)#77 <= 1
 0 <= x(78)#78 <= 1
 0 <= x(79)#79 <= 1
 0 <= x(80)#80 <= 1
 0 <= x(81)#81 <= 1
 0 <= x(82)#82 <= 1
 0 <= x(83)#83 <= 1
 0 <= x(84)#84 <= 1
 0 <= x(85)#85 <= 1
 0 <= x(86)#86 <= 1
 0 <= x(87)#87 <= 1
 0 <= x(88)#88 <= 1
 0 <= x(89)#89 <= 1
 0 <= x(90)#90 <= 1
 0 <= x(91)#91 <= 1
 0 <= x(92)#92 <= 1
 0 <= x(93)#93 <= 1
 0 <= x(94)#94 <= 1
 0 <= x(95)#95 <= 1
 0 <= x(96)#96 <= 1
 0 <= x(97)#97 <= 1
 0 <= x(98)#98 <= 1
 0 <= x(99)#99 <= 1
Generals
 x(0)#0  x(1)#1  x(2)#2  x(3)#3  x(4)#4  x(5)#5  x(6)#6  x(7)#7  x(8)#8 
 x(9)#9  x(10)#10  x(11)#11  x(12)#12  x(13)#13  x(14)#14  x(15)#15  x(16)#16 
 x(17)#17  x(18)#18  x(19)#19  x(20)#20  x(21)#21  x(22)#22  x(23)#23 
 x(24)#24  x(25)#25  x(26)#26  x(27)#27  x(28)#28  x(29)#29  x(30)#30 
 x(31)#31  x(32)#32  x(33)#33  x(34)#34  x(35)#35  x(36)#36  x(37)#37 
 x(38)#38  x(39)#39  x(40)#40  x(41)#41  x(42)#42  x(43)#43  x(44)#44 
 x(45)#45  x(46)#46  x(47)#47  x(48)#48  x(49)#49  x(50)#50  x(51)#51 
 x(52)#52  x(53)#53  x(54)#54  x(55)#55  x(56)#56  x(57)#57  x(58)#58 
 x(59)#59  x(60)#60  x(61)#61  x(62)#62  x(63)#63  x(64)#64  x(65)#65 
 x(66)#66  x(67)#67  x(68)#68  x(69)#69  x(70)#70  x(71)#71  x(72)#72 
 x(73)#73  x(74)#74  x(75)#75  x(76)#76  x(77)#77  x(78)#78  x(79)#79 
 x(80)#80  x(81)#81  x(82)#82  x(83)#83  x(84)#84  x(85)#85  x(86)#86 
 x(87)#87  x(88)#88  x(89)#89  x(90)#90  x(91)#91  x(92)#92  x(93)#93 
 x(94)#94  x(95)#95  x(96)#96  x(97)#97  x(98)#98  x(99)#99 
End
